Gurobi Optimizer version 9.1.2 build v9.1.2rc0 (linux64)
Thread count: 36 physical cores, 72 logical processors, using up to 32 threads
Optimize a model with 12 rows, 57 columns and 590 nonzeros
Model fingerprint: 0xf32eec78
Model has 47 quadratic constraints
Coefficient statistics:
  Matrix range     [2e-05, 3e+00]
  QMatrix range    [1e+00, 1e+00]
  QLMatrix range   [1e+00, 1e+00]
  Objective range  [8e-03, 7e-01]
  Bounds range     [1e+00, 1e+00]
  RHS range        [1e+00, 1e+00]
Presolve removed 9 rows and 0 columns

Continuous model is non-convex -- solving as a MIP.

Presolve removed 9 rows and 0 columns
Presolve time: 0.00s
Presolved: 189 rows, 57 columns, 443 nonzeros
Presolved model has 47 bilinear constraint(s)
Variable types: 57 continuous, 0 integer (0 binary)

Root relaxation: objective -1.743721e+00, 44 iterations, 0.00 seconds

    Nodes    |    Current Node    |     Objective Bounds      |     Work
 Expl Unexpl |  Obj  Depth IntInf | Incumbent    BestBd   Gap | It/Node Time

     0     0   -1.74372    0   38          -   -1.74372      -     -    0s
H    0     0                       0.6147548   -1.74372   384%     -    0s
     0     0   -1.64739    0    1    0.61475   -1.64739   368%     -    0s
H    0     0                      -1.6450460   -1.64739  0.14%     -    0s
     0     0     cutoff    0        -1.64505   -1.64505  0.00%     -    0s

Cutting planes:
  RLT: 25
  BQP: 3

Explored 1 nodes (76 simplex iterations) in 0.01 seconds
Thread count was 32 (of 72 available processors)

Solution count 2: -1.64505 0.614755 
No other solutions better than -1.64505

Optimal solution found (tolerance 1.00e-04)
Best objective -1.645045978473e+00, best bound -1.645045978473e+00, gap 0.0000%

User-callback calls 78, time in user-callback 0.00 sec
Gurobi Optimizer version 9.1.2 build v9.1.2rc0 (linux64)
Thread count: 36 physical cores, 72 logical processors, using up to 32 threads
Optimize a model with 24 rows, 120 columns and 2480 nonzeros
Model fingerprint: 0x88f7c0c7
Model has 100 quadratic constraints
Coefficient statistics:
  Matrix range     [8e-06, 4e+00]
  QMatrix range    [1e+00, 1e+00]
  QLMatrix range   [1e+00, 1e+00]
  Objective range  [6e-03, 1e+00]
  Bounds range     [1e+00, 1e+00]
  RHS range        [1e+00, 1e+00]
Presolve removed 16 rows and 0 columns

Continuous model is non-convex -- solving as a MIP.

Presolve removed 16 rows and 0 columns
Presolve time: 0.00s
Presolved: 408 rows, 120 columns, 1351 nonzeros
Presolved model has 100 bilinear constraint(s)
Variable types: 120 continuous, 0 integer (0 binary)

Root relaxation: objective -9.771235e+00, 147 iterations, 0.00 seconds

    Nodes    |    Current Node    |     Objective Bounds      |     Work
 Expl Unexpl |  Obj  Depth IntInf | Incumbent    BestBd   Gap | It/Node Time

     0     0   -9.77123    0  100          -   -9.77123      -     -    0s
H    0     0                       0.7038623   -9.77123  1488%     -    0s
     0     0   -6.77312    0   76    0.70386   -6.77312  1062%     -    0s
H    0     0                      -0.1922172   -6.77312  3424%     -    0s
     0     0   -6.77268    0   76   -0.19222   -6.77268  3423%     -    0s
     0     0   -6.26545    0  100   -0.19222   -6.26545  3160%     -    0s
     0     0   -6.20860    0  100   -0.19222   -6.20860  3130%     -    0s
     0     0   -5.90707    0  100   -0.19222   -5.90707  2973%     -    0s
H    0     0                      -0.5740389   -5.90707   929%     -    0s
     0     0   -5.86365    0  100   -0.57404   -5.86365   921%     -    0s
     0     0   -5.84095    0  100   -0.57404   -5.84095   918%     -    0s
H    0     0                      -1.0993502   -5.84095   431%     -    0s
     0     0   -5.82029    0  100   -1.09935   -5.82029   429%     -    0s
     0     0   -5.76696    0   90   -1.09935   -5.76696   425%     -    0s
     0     0   -5.76256    0  100   -1.09935   -5.76256   424%     -    0s
     0     0   -5.75092    0  100   -1.09935   -5.75092   423%     -    0s
     0     0   -5.75020    0  100   -1.09935   -5.75020   423%     -    0s
     0     0   -5.74728    0  100   -1.09935   -5.74728   423%     -    0s
     0     0   -5.74629    0  100   -1.09935   -5.74629   423%     -    0s
     0     0   -5.74589    0  100   -1.09935   -5.74589   423%     -    0s
H    0     0                      -2.2223329   -5.74589   159%     -    0s
H    0     0                      -2.4098820   -5.74589   138%     -    0s
     0     2   -5.74589    0  100   -2.40988   -5.74589   138%     -    0s
*  630   670              25      -3.7364274   -5.17543  38.5%  39.0    0s
*  686   670              25      -4.0896851   -5.17543  26.5%  37.3    0s
*  900   829              33      -4.1023612   -5.17543  26.2%  34.5    0s
* 1178   939              24      -4.1200427   -5.17543  25.6%  33.9    0s
* 1193   939              43      -4.2154250   -5.17543  22.8%  33.6    0s
* 1525  1185              33      -4.2395465   -5.17543  22.1%  32.3    0s
* 1710  1185              26      -4.4364568   -5.17543  16.7%  31.6    0s
* 1712  1185              27      -4.4364584   -5.17543  16.7%  31.6    0s
* 1834  1339              34      -4.5981820   -5.10975  11.1%  31.4    0s
* 1835  1339              34      -4.5981884   -5.10975  11.1%  31.4    0s
* 2028  1339              24      -4.7820842   -5.10975  6.85%  30.4    0s
* 2048  1339              23      -4.7886681   -5.10975  6.70%  30.2    0s
* 2049  1339              23      -4.7886688   -5.10975  6.70%  30.2    0s
* 2515  1163              21      -4.7887391   -4.97629  3.92%  26.9    0s
* 2516  1163              21      -4.7887416   -4.97629  3.92%  26.9    0s
* 2634  1526              21      -4.7961757   -4.97629  3.76%  25.8    0s
* 2682  1526              26      -4.8203423   -4.97629  3.24%  25.5    0s
* 2750  1526              26      -4.8226367   -4.97629  3.19%  25.1    0s
* 3174  1396              23      -4.8228877   -4.87141  1.01%  22.7    0s
* 3176  1396              24      -4.8247624   -4.87141  0.97%  22.7    0s
* 3177  1396              24      -4.8247789   -4.87141  0.97%  22.7    0s
* 3182  1396              25      -4.8249752   -4.87141  0.96%  22.6    0s
* 3192  1396              20      -4.8253709   -4.85171  0.55%  22.6    0s
* 3240  1396              25      -4.8312370   -4.84030  0.19%  22.3    0s
* 3262  1396              26      -4.8328127   -4.83986  0.15%  22.2    0s
* 3317  1396              25      -4.8339360   -4.83986  0.12%  22.0    0s
* 3318  1396              25      -4.8340178   -4.83986  0.12%  22.0    0s
* 3814   942              21      -4.8341834   -4.83823  0.08%  19.6    0s
* 3816   942              22      -4.8344501   -4.83823  0.08%  19.6    0s
* 3820   942              21      -4.8346794   -4.83823  0.07%  19.5    0s
* 3922   942              22      -4.8347753   -4.83539  0.01%  19.2    0s
* 4073   942              23      -4.8348503   -4.83529  0.01%  18.6    0s

Cutting planes:
  RLT: 87
  BQP: 15
  PSD: 16

Explored 4570 nodes (77181 simplex iterations) in 0.91 seconds
Thread count was 32 (of 72 available processors)

Solution count 10: -4.83485 -4.83478 -4.83468 ... -4.82537

Optimal solution found (tolerance 1.00e-04)
Best objective -4.834850255935e+00, best bound -4.835288821182e+00, gap 0.0091%

User-callback calls 9513, time in user-callback 0.00 sec



objective value: -4.834850255935059
objective bound: -4.835288821182045
x_opt: [0.0, 1.0, 1.0, 0.0, 1.0, 0.2987366431708475, 0.01857929888712056, 0.0, 1.0, 0.3507106725924905, 0.0, 0.0, 0.0, 1.0, 0.0, 0.8460003007500352, 1.0, 0.9642296759305131, 0.0, 1.0]
GUROBI solution time: 0.9051129817962646




